
(set-logic ALL) 

(declare-datatype MyList ((Nil) (Cons (head Real) (tail MyList)) )) 
(declare-fun l0 () MyList) 
(declare-fun l1 () MyList) 
(declare-fun l2 () MyList) 
(declare-fun l3 () MyList) 
(declare-fun i0 () Real) 
(declare-fun i1 () Real) 
(assert (= l3 Nil) )
(assert (not (= l3 l3)) )
(assert (is-Cons l0) )
(assert (and (= l0 Nil) (= l1 Nil) (= l3 l2)) )
(assert (= l1 Nil) )
(assert (and (= l1 Nil) (is-Cons l0)) )
(assert (is-Cons l1) )
(assert (and (= l1 Nil) (is-Nil Nil) (= l0 l0) (= l3 Nil)) )
(check-sat)
